p cnf 161 459
c inputs: 1 2 3 4 5 6 7 8
c variables for gates: 9 ... 153
c outputs: 154 155 156 157 158 159 160 161
c random input: -1 -2 3 -4 -5 -6 7 8
9 -2 -5 0
-9 2 0
-9 5 0
10 -1 -6 0
-10 1 0
-10 6 0
11 -9 10 0
-11 9 0
-11 -10 0
12 -10 9 0
-12 10 0
-12 -9 0
13 12 11 0
-13 -12 0
-13 -11 0
14 -2 -5 0
-14 2 0
-14 5 0
15 -1 -6 0
-15 1 0
-15 6 0
16 -14 -15 0
-16 14 0
-16 15 0
17 -3 -5 0
-17 3 0
-17 5 0
18 -2 -6 0
-18 2 0
-18 6 0
19 -18 -17 0
-19 18 0
-19 17 0
20 -3 -5 0
-20 3 0
-20 5 0
21 -20 -16 0
-21 20 0
-21 16 0
22 -2 -6 0
-22 2 0
-22 6 0
23 -22 -16 0
-23 22 0
-23 16 0
24 21 23 0
-24 -21 0
-24 -23 0
25 19 -24 0
-25 -19 0
-25 24 0
26 -3 -5 0
-26 3 0
-26 5 0
27 -2 -6 0
-27 2 0
-27 6 0
28 -27 16 0
-28 27 0
-28 -16 0
29 27 -16 0
-29 -27 0
-29 16 0
30 29 28 0
-30 -29 0
-30 -28 0
31 -26 -30 0
-31 26 0
-31 30 0
32 26 30 0
-32 -26 0
-32 -30 0
33 32 31 0
-33 -32 0
-33 -31 0
34 -4 -5 0
-34 4 0
-34 5 0
35 -3 -6 0
-35 3 0
-35 6 0
36 -34 -35 0
-36 34 0
-36 35 0
37 -4 -5 0
-37 4 0
-37 5 0
38 -37 25 0
-38 37 0
-38 -25 0
39 -3 -6 0
-39 3 0
-39 6 0
40 -39 25 0
-40 39 0
-40 -25 0
41 40 38 0
-41 -40 0
-41 -38 0
42 36 -41 0
-42 -36 0
-42 41 0
43 -4 -5 0
-43 4 0
-43 5 0
44 -3 -6 0
-44 3 0
-44 6 0
45 -44 -25 0
-45 44 0
-45 25 0
46 44 25 0
-46 -44 0
-46 -25 0
47 45 46 0
-47 -45 0
-47 -46 0
48 -43 -47 0
-48 43 0
-48 47 0
49 43 47 0
-49 -43 0
-49 -47 0
50 49 48 0
-50 -49 0
-50 -48 0
51 -4 -6 0
-51 4 0
-51 6 0
52 -51 42 0
-52 51 0
-52 -42 0
53 -4 -6 0
-53 4 0
-53 6 0
54 -53 -42 0
-54 53 0
-54 42 0
55 53 42 0
-55 -53 0
-55 -42 0
56 55 54 0
-56 -55 0
-56 -54 0
57 -1 -7 0
-57 1 0
-57 7 0
58 57 33 0
-58 -57 0
-58 -33 0
59 -57 -33 0
-59 57 0
-59 33 0
60 59 58 0
-60 -59 0
-60 -58 0
61 -1 -7 0
-61 1 0
-61 7 0
62 -61 33 0
-62 61 0
-62 -33 0
63 -2 -7 0
-63 2 0
-63 7 0
64 -63 50 0
-64 63 0
-64 -50 0
65 50 -62 0
-65 -50 0
-65 62 0
66 -2 -7 0
-66 2 0
-66 7 0
67 -66 -62 0
-67 66 0
-67 62 0
68 67 65 0
-68 -67 0
-68 -65 0
69 64 -68 0
-69 -64 0
-69 68 0
70 -2 -7 0
-70 2 0
-70 7 0
71 -70 62 0
-71 70 0
-71 -62 0
72 70 -62 0
-72 -70 0
-72 62 0
73 72 71 0
-73 -72 0
-73 -71 0
74 50 -73 0
-74 -50 0
-74 73 0
75 -50 73 0
-75 50 0
-75 -73 0
76 75 74 0
-76 -75 0
-76 -74 0
77 -3 -7 0
-77 3 0
-77 7 0
78 -77 56 0
-78 77 0
-78 -56 0
79 56 69 0
-79 -56 0
-79 -69 0
80 -3 -7 0
-80 3 0
-80 7 0
81 -80 69 0
-81 80 0
-81 -69 0
82 79 81 0
-82 -79 0
-82 -81 0
83 -82 78 0
-83 82 0
-83 -78 0
84 -3 -7 0
-84 3 0
-84 7 0
85 -84 -69 0
-85 84 0
-85 69 0
86 84 69 0
-86 -84 0
-86 -69 0
87 86 85 0
-87 -86 0
-87 -85 0
88 56 -87 0
-88 -56 0
-88 87 0
89 -56 87 0
-89 56 0
-89 -87 0
90 89 88 0
-90 -89 0
-90 -88 0
91 -4 -7 0
-91 4 0
-91 7 0
92 -91 -52 0
-92 91 0
-92 52 0
93 -52 83 0
-93 52 0
-93 -83 0
94 -4 -7 0
-94 4 0
-94 7 0
95 -94 83 0
-95 94 0
-95 -83 0
96 93 95 0
-96 -93 0
-96 -95 0
97 92 -96 0
-97 -92 0
-97 96 0
98 -4 -7 0
-98 4 0
-98 7 0
99 -98 -83 0
-99 98 0
-99 83 0
100 98 83 0
-100 -98 0
-100 -83 0
101 99 100 0
-101 -99 0
-101 -100 0
102 -52 -101 0
-102 52 0
-102 101 0
103 52 101 0
-103 -52 0
-103 -101 0
104 103 102 0
-104 -103 0
-104 -102 0
105 -1 -8 0
-105 1 0
-105 8 0
106 105 76 0
-106 -105 0
-106 -76 0
107 -105 -76 0
-107 105 0
-107 76 0
108 107 106 0
-108 -107 0
-108 -106 0
109 -1 -8 0
-109 1 0
-109 8 0
110 -109 76 0
-110 109 0
-110 -76 0
111 -2 -8 0
-111 2 0
-111 8 0
112 -111 90 0
-112 111 0
-112 -90 0
113 -110 90 0
-113 110 0
-113 -90 0
114 -2 -8 0
-114 2 0
-114 8 0
115 -114 -110 0
-115 114 0
-115 110 0
116 113 115 0
-116 -113 0
-116 -115 0
117 112 -116 0
-117 -112 0
-117 116 0
118 -2 -8 0
-118 2 0
-118 8 0
119 -118 110 0
-119 118 0
-119 -110 0
120 118 -110 0
-120 -118 0
-120 110 0
121 120 119 0
-121 -120 0
-121 -119 0
122 -121 90 0
-122 121 0
-122 -90 0
123 121 -90 0
-123 -121 0
-123 90 0
124 123 122 0
-124 -123 0
-124 -122 0
125 -3 -8 0
-125 3 0
-125 8 0
126 -125 104 0
-126 125 0
-126 -104 0
127 104 117 0
-127 -104 0
-127 -117 0
128 -3 -8 0
-128 3 0
-128 8 0
129 -128 117 0
-129 128 0
-129 -117 0
130 127 129 0
-130 -127 0
-130 -129 0
131 126 -130 0
-131 -126 0
-131 130 0
132 -3 -8 0
-132 3 0
-132 8 0
133 -132 -117 0
-133 132 0
-133 117 0
134 132 117 0
-134 -132 0
-134 -117 0
135 133 134 0
-135 -133 0
-135 -134 0
136 -135 104 0
-136 135 0
-136 -104 0
137 135 -104 0
-137 -135 0
-137 104 0
138 136 137 0
-138 -136 0
-138 -137 0
139 -4 -8 0
-139 4 0
-139 8 0
140 -139 97 0
-140 139 0
-140 -97 0
141 131 97 0
-141 -131 0
-141 -97 0
142 -4 -8 0
-142 4 0
-142 8 0
143 -142 131 0
-143 142 0
-143 -131 0
144 141 143 0
-144 -141 0
-144 -143 0
145 -144 140 0
-145 144 0
-145 -140 0
146 -4 -8 0
-146 4 0
-146 8 0
147 -146 -131 0
-147 146 0
-147 131 0
148 146 131 0
-148 -146 0
-148 -131 0
149 148 147 0
-149 -148 0
-149 -147 0
150 97 -149 0
-150 -97 0
-150 149 0
151 -97 149 0
-151 97 0
-151 -149 0
152 151 150 0
-152 -151 0
-152 -150 0
153 -1 -5 0
-153 1 0
-153 5 0
-154 153 0
154 -153 0
-155 -13 0
155 13 0
-156 -60 0
156 60 0
-157 -108 0
157 108 0
-158 -124 0
158 124 0
-159 -138 0
159 138 0
-160 -152 0
160 152 0
-161 -145 0
161 145 0
-154 0
-155 0
-156 0
-157 0
158 0
159 0
-160 0
-161 0
